p cnf 963 2472
51 -2 -696 0
-51 2 0
-51 696 0
52 -51 -697 0
-52 51 0
-52 697 0
53 -698 -699 0
-53 698 0
-53 699 0
54 -53 -6 0
-54 53 0
-54 6 0
55 -700 -701 0
-55 700 0
-55 701 0
56 -702 -703 0
-56 702 0
-56 703 0
57 -56 -9 0
-57 56 0
-57 9 0
58 -704 -55 0
-58 704 0
-58 55 0
59 -11 -705 0
-59 11 0
-59 705 0
60 -59 -12 0
-60 59 0
-60 12 0
61 -706 -58 0
-61 706 0
-61 58 0
62 -707 -703 0
-62 707 0
-62 703 0
63 -62 -2 0
-63 62 0
-63 2 0
64 -708 -61 0
-64 708 0
-64 61 0
65 -15 -14 0
-65 15 0
-65 14 0
66 -65 -709 0
-66 65 0
-66 709 0
67 -710 -64 0
-67 710 0
-67 64 0
68 -711 -10 0
-68 711 0
-68 10 0
69 -68 -9 0
-69 68 0
-69 9 0
70 -712 -67 0
-70 712 0
-70 67 0
71 -19 -713 0
-71 19 0
-71 713 0
72 -71 -714 0
-72 71 0
-72 714 0
73 -715 -70 0
-73 715 0
-73 70 0
74 -716 -698 0
-74 716 0
-74 698 0
75 -74 -717 0
-75 74 0
-75 717 0
76 -718 -73 0
-76 718 0
-76 73 0
77 -24 -719 0
-77 24 0
-77 719 0
78 -77 -698 0
-78 77 0
-78 698 0
79 -720 -76 0
-79 720 0
-79 76 0
80 -26 -25 0
-80 26 0
-80 25 0
81 -80 -721 0
-81 80 0
-81 721 0
82 -722 -79 0
-82 722 0
-82 79 0
83 -28 -17 0
-83 28 0
-83 17 0
84 -83 -723 0
-84 83 0
-84 723 0
85 -724 -82 0
-85 724 0
-85 82 0
86 -702 -697 0
-86 702 0
-86 697 0
87 -86 -30 0
-87 86 0
-87 30 0
88 -725 -85 0
-88 725 0
-88 85 0
89 -726 -727 0
-89 726 0
-89 727 0
90 -89 -5 0
-90 89 0
-90 5 0
91 -728 -88 0
-91 728 0
-91 88 0
92 -32 -10 0
-92 32 0
-92 10 0
93 -92 -27 0
-93 92 0
-93 27 0
94 -729 -91 0
-94 729 0
-94 91 0
95 -33 -23 0
-95 33 0
-95 23 0
96 -95 -717 0
-96 95 0
-96 717 0
97 -730 -94 0
-97 730 0
-97 94 0
98 -731 -702 0
-98 731 0
-98 702 0
99 -98 -19 0
-99 98 0
-99 19 0
100 -732 -97 0
-100 732 0
-100 97 0
101 -35 -696 0
-101 35 0
-101 696 0
102 -101 -36 0
-102 101 0
-102 36 0
103 -733 -100 0
-103 733 0
-103 100 0
104 -25 -727 0
-104 25 0
-104 727 0
105 -104 -734 0
-105 104 0
-105 734 0
106 -735 -103 0
-106 735 0
-106 103 0
107 -37 -24 0
-107 37 0
-107 24 0
108 -107 -736 0
-108 107 0
-108 736 0
109 -737 -106 0
-109 737 0
-109 106 0
110 -31 -14 0
-110 31 0
-110 14 0
111 -110 -738 0
-111 110 0
-111 738 0
112 -739 -109 0
-112 739 0
-112 109 0
113 -740 -707 0
-113 740 0
-113 707 0
114 -113 -31 0
-114 113 0
-114 31 0
115 -741 -112 0
-115 741 0
-115 112 0
116 -15 -705 0
-116 15 0
-116 705 0
117 -116 -38 0
-117 116 0
-117 38 0
118 -742 -115 0
-118 742 0
-118 115 0
119 -39 -702 0
-119 39 0
-119 702 0
120 -119 -743 0
-120 119 0
-120 743 0
121 -744 -118 0
-121 744 0
-121 118 0
122 -42 -41 0
-122 42 0
-122 41 0
123 -122 -43 0
-123 122 0
-123 43 0
124 -745 -121 0
-124 745 0
-124 121 0
125 -746 -21 0
-125 746 0
-125 21 0
126 -125 -43 0
-126 125 0
-126 43 0
127 -747 -124 0
-127 747 0
-127 124 0
128 -24 -10 0
-128 24 0
-128 10 0
129 -128 -748 0
-129 128 0
-129 748 0
130 -749 -127 0
-130 749 0
-130 127 0
131 -31 -716 0
-131 31 0
-131 716 0
132 -131 -750 0
-132 131 0
-132 750 0
133 -751 -130 0
-133 751 0
-133 130 0
134 -45 -22 0
-134 45 0
-134 22 0
135 -134 -697 0
-135 134 0
-135 697 0
136 -752 -133 0
-136 752 0
-136 133 0
137 -719 -753 0
-137 719 0
-137 753 0
138 -137 -22 0
-138 137 0
-138 22 0
139 -754 -136 0
-139 754 0
-139 136 0
140 -726 -10 0
-140 726 0
-140 10 0
141 -140 -39 0
-141 140 0
-141 39 0
142 -755 -139 0
-142 755 0
-142 139 0
143 -37 -27 0
-143 37 0
-143 27 0
144 -143 -20 0
-144 143 0
-144 20 0
145 -756 -142 0
-145 756 0
-145 142 0
146 -757 -716 0
-146 757 0
-146 716 0
147 -146 -6 0
-147 146 0
-147 6 0
148 -758 -145 0
-148 758 0
-148 145 0
149 -47 -759 0
-149 47 0
-149 759 0
150 -149 -48 0
-150 149 0
-150 48 0
151 -760 -148 0
-151 760 0
-151 148 0
152 -723 -699 0
-152 723 0
-152 699 0
153 -152 -709 0
-153 152 0
-153 709 0
154 -761 -151 0
-154 761 0
-154 151 0
155 -37 -698 0
-155 37 0
-155 698 0
156 -155 -736 0
-156 155 0
-156 736 0
157 -762 -154 0
-157 762 0
-157 154 0
158 -45 -763 0
-158 45 0
-158 763 0
159 -158 -43 0
-159 158 0
-159 43 0
160 -764 -157 0
-160 764 0
-160 157 0
161 -46 -38 0
-161 46 0
-161 38 0
162 -161 -746 0
-162 161 0
-162 746 0
163 -765 -160 0
-163 765 0
-163 160 0
164 -41 -719 0
-164 41 0
-164 719 0
165 -164 -36 0
-165 164 0
-165 36 0
166 -766 -163 0
-166 766 0
-166 163 0
167 -763 -740 0
-167 763 0
-167 740 0
168 -167 -767 0
-168 167 0
-168 767 0
169 -768 -166 0
-169 768 0
-169 166 0
170 -4 -1 0
-170 4 0
-170 1 0
171 -170 -19 0
-171 170 0
-171 19 0
172 -769 -169 0
-172 769 0
-172 169 0
173 -13 -10 0
-173 13 0
-173 10 0
174 -173 -36 0
-174 173 0
-174 36 0
175 -770 -172 0
-175 770 0
-175 172 0
176 -721 -740 0
-176 721 0
-176 740 0
177 -176 -22 0
-177 176 0
-177 22 0
178 -771 -175 0
-178 771 0
-178 175 0
179 -31 -748 0
-179 31 0
-179 748 0
180 -179 -40 0
-180 179 0
-180 40 0
181 -772 -178 0
-181 772 0
-181 178 0
182 -773 -702 0
-182 773 0
-182 702 0
183 -182 -15 0
-183 182 0
-183 15 0
184 -774 -181 0
-184 774 0
-184 181 0
185 -13 -4 0
-185 13 0
-185 4 0
186 -185 -713 0
-186 185 0
-186 713 0
187 -775 -184 0
-187 775 0
-187 184 0
188 -750 -27 0
-188 750 0
-188 27 0
189 -188 -9 0
-189 188 0
-189 9 0
190 -776 -187 0
-190 776 0
-190 187 0
191 -727 -8 0
-191 727 0
-191 8 0
192 -191 -777 0
-192 191 0
-192 777 0
193 -778 -190 0
-193 778 0
-193 190 0
194 -748 -703 0
-194 748 0
-194 703 0
195 -194 -714 0
-195 194 0
-195 714 0
196 -779 -193 0
-196 779 0
-196 193 0
197 -26 -15 0
-197 26 0
-197 15 0
198 -197 -47 0
-198 197 0
-198 47 0
199 -780 -196 0
-199 780 0
-199 196 0
200 -781 -702 0
-200 781 0
-200 702 0
201 -200 -30 0
-201 200 0
-201 30 0
202 -782 -199 0
-202 782 0
-202 199 0
203 -23 -13 0
-203 23 0
-203 13 0
204 -203 -702 0
-204 203 0
-204 702 0
205 -783 -202 0
-205 783 0
-205 202 0
206 -25 -738 0
-206 25 0
-206 738 0
207 -206 -714 0
-207 206 0
-207 714 0
208 -784 -205 0
-208 784 0
-208 205 0
209 -46 -702 0
-209 46 0
-209 702 0
210 -209 -41 0
-210 209 0
-210 41 0
211 -785 -208 0
-211 785 0
-211 208 0
212 -743 -28 0
-212 743 0
-212 28 0
213 -212 -43 0
-213 212 0
-213 43 0
214 -786 -211 0
-214 786 0
-214 211 0
215 -726 -18 0
-215 726 0
-215 18 0
216 -215 -767 0
-216 215 0
-216 767 0
217 -787 -214 0
-217 787 0
-217 214 0
218 -777 -35 0
-218 777 0
-218 35 0
219 -218 -763 0
-219 218 0
-219 763 0
220 -788 -217 0
-220 788 0
-220 217 0
221 -789 -716 0
-221 789 0
-221 716 0
222 -221 -790 0
-222 221 0
-222 790 0
223 -791 -220 0
-223 791 0
-223 220 0
224 -46 -39 0
-224 46 0
-224 39 0
225 -224 -697 0
-225 224 0
-225 697 0
226 -792 -223 0
-226 792 0
-226 223 0
227 -37 -34 0
-227 37 0
-227 34 0
228 -227 -699 0
-228 227 0
-228 699 0
229 -793 -226 0
-229 793 0
-229 226 0
230 -794 -698 0
-230 794 0
-230 698 0
231 -230 -3 0
-231 230 0
-231 3 0
232 -795 -229 0
-232 795 0
-232 229 0
233 -29 -727 0
-233 29 0
-233 727 0
234 -233 -748 0
-234 233 0
-234 748 0
235 -796 -232 0
-235 796 0
-235 232 0
236 -9 -5 0
-236 9 0
-236 5 0
237 -236 -20 0
-237 236 0
-237 20 0
238 -797 -235 0
-238 797 0
-238 235 0
239 -726 -11 0
-239 726 0
-239 11 0
240 -239 -30 0
-240 239 0
-240 30 0
241 -798 -238 0
-241 798 0
-241 238 0
242 -29 -8 0
-242 29 0
-242 8 0
243 -242 -19 0
-243 242 0
-243 19 0
244 -799 -241 0
-244 799 0
-244 241 0
245 -750 -736 0
-245 750 0
-245 736 0
246 -245 -6 0
-246 245 0
-246 6 0
247 -800 -244 0
-247 800 0
-247 244 0
248 -801 -45 0
-248 801 0
-248 45 0
249 -248 -39 0
-249 248 0
-249 39 0
250 -802 -247 0
-250 802 0
-250 247 0
251 -203 -1 0
-251 203 0
-251 1 0
252 -803 -250 0
-252 803 0
-252 250 0
253 -716 -12 0
-253 716 0
-253 12 0
254 -253 -40 0
-254 253 0
-254 40 0
255 -804 -252 0
-255 804 0
-255 252 0
256 -726 -773 0
-256 726 0
-256 773 0
257 -256 -727 0
-257 256 0
-257 727 0
258 -805 -255 0
-258 805 0
-258 255 0
259 -39 -31 0
-259 39 0
-259 31 0
260 -259 -48 0
-260 259 0
-260 48 0
261 -806 -258 0
-261 806 0
-261 258 0
262 -37 -719 0
-262 37 0
-262 719 0
263 -262 -3 0
-263 262 0
-263 3 0
264 -807 -261 0
-264 807 0
-264 261 0
265 -773 -10 0
-265 773 0
-265 10 0
266 -265 -808 0
-266 265 0
-266 808 0
267 -809 -264 0
-267 809 0
-267 264 0
268 -801 -48 0
-268 801 0
-268 48 0
269 -268 -709 0
-269 268 0
-269 709 0
270 -810 -267 0
-270 810 0
-270 267 0
271 -719 -5 0
-271 719 0
-271 5 0
272 -271 -36 0
-272 271 0
-272 36 0
273 -811 -270 0
-273 811 0
-273 270 0
274 -812 -813 0
-274 812 0
-274 813 0
275 -274 -42 0
-275 274 0
-275 42 0
276 -814 -273 0
-276 814 0
-276 273 0
277 -740 -7 0
-277 740 0
-277 7 0
278 -277 -748 0
-278 277 0
-278 748 0
279 -815 -276 0
-279 815 0
-279 276 0
280 -50 -10 0
-280 50 0
-280 10 0
281 -280 -20 0
-281 280 0
-281 20 0
282 -816 -279 0
-282 816 0
-282 279 0
283 -27 -6 0
-283 27 0
-283 6 0
284 -283 -43 0
-284 283 0
-284 43 0
285 -817 -282 0
-285 817 0
-285 282 0
286 -34 -703 0
-286 34 0
-286 703 0
287 -286 -777 0
-287 286 0
-287 777 0
288 -818 -285 0
-288 818 0
-288 285 0
289 -819 -2 0
-289 819 0
-289 2 0
290 -289 -42 0
-290 289 0
-290 42 0
291 -820 -288 0
-291 820 0
-291 288 0
292 -271 -10 0
-292 271 0
-292 10 0
293 -821 -291 0
-293 821 0
-293 291 0
294 -726 -7 0
-294 726 0
-294 7 0
295 -294 -9 0
-295 294 0
-295 9 0
296 -822 -293 0
-296 822 0
-296 293 0
297 -711 -698 0
-297 711 0
-297 698 0
298 -297 -20 0
-298 297 0
-298 20 0
299 -823 -296 0
-299 823 0
-299 296 0
300 -17 -2 0
-300 17 0
-300 2 0
301 -300 -777 0
-301 300 0
-301 777 0
302 -824 -299 0
-302 824 0
-302 299 0
303 -757 -18 0
-303 757 0
-303 18 0
304 -303 -47 0
-304 303 0
-304 47 0
305 -825 -302 0
-305 825 0
-305 302 0
306 -8 -698 0
-306 8 0
-306 698 0
307 -306 -3 0
-307 306 0
-307 3 0
308 -826 -305 0
-308 826 0
-308 305 0
309 -19 -696 0
-309 19 0
-309 696 0
310 -309 -827 0
-310 309 0
-310 827 0
311 -828 -308 0
-311 828 0
-311 308 0
312 -829 -4 0
-312 829 0
-312 4 0
313 -312 -22 0
-313 312 0
-313 22 0
314 -830 -311 0
-314 830 0
-314 311 0
315 -29 -17 0
-315 29 0
-315 17 0
316 -315 -781 0
-316 315 0
-316 781 0
317 -831 -314 0
-317 831 0
-317 314 0
318 -731 -705 0
-318 731 0
-318 705 0
319 -318 -716 0
-319 318 0
-319 716 0
320 -832 -317 0
-320 832 0
-320 317 0
321 -45 -723 0
-321 45 0
-321 723 0
322 -321 -11 0
-322 321 0
-322 11 0
323 -833 -320 0
-323 833 0
-323 320 0
324 -716 -10 0
-324 716 0
-324 10 0
325 -324 -9 0
-325 324 0
-325 9 0
326 -834 -323 0
-326 834 0
-326 323 0
327 -716 -4 0
-327 716 0
-327 4 0
328 -327 -835 0
-328 327 0
-328 835 0
329 -836 -326 0
-329 836 0
-329 326 0
330 -773 -2 0
-330 773 0
-330 2 0
331 -330 -716 0
-331 330 0
-331 716 0
332 -837 -329 0
-332 837 0
-332 329 0
333 -33 -738 0
-333 33 0
-333 738 0
334 -333 -819 0
-334 333 0
-334 819 0
335 -838 -332 0
-335 838 0
-335 332 0
336 -801 -49 0
-336 801 0
-336 49 0
337 -336 -16 0
-337 336 0
-337 16 0
338 -839 -335 0
-338 839 0
-338 335 0
339 -32 -757 0
-339 32 0
-339 757 0
340 -339 -738 0
-340 339 0
-340 738 0
341 -840 -338 0
-341 840 0
-341 338 0
342 -759 -18 0
-342 759 0
-342 18 0
343 -342 -27 0
-343 342 0
-343 27 0
344 -841 -341 0
-344 841 0
-344 341 0
345 -32 -2 0
-345 32 0
-345 2 0
346 -345 -15 0
-346 345 0
-346 15 0
347 -842 -344 0
-347 842 0
-347 344 0
348 -777 -41 0
-348 777 0
-348 41 0
349 -348 -20 0
-349 348 0
-349 20 0
350 -843 -347 0
-350 843 0
-350 347 0
351 -789 -726 0
-351 789 0
-351 726 0
352 -351 -30 0
-352 351 0
-352 30 0
353 -844 -350 0
-353 844 0
-353 350 0
354 -740 -845 0
-354 740 0
-354 845 0
355 -354 -801 0
-355 354 0
-355 801 0
356 -846 -353 0
-356 846 0
-356 353 0
357 -173 -736 0
-357 173 0
-357 736 0
358 -847 -356 0
-358 847 0
-358 356 0
359 -731 -8 0
-359 731 0
-359 8 0
360 -359 -20 0
-360 359 0
-360 20 0
361 -848 -358 0
-361 848 0
-361 358 0
362 -723 -19 0
-362 723 0
-362 19 0
363 -362 -753 0
-363 362 0
-363 753 0
364 -849 -361 0
-364 849 0
-364 361 0
365 -24 -13 0
-365 24 0
-365 13 0
366 -365 -26 0
-366 365 0
-366 26 0
367 -850 -364 0
-367 850 0
-367 364 0
368 -11 -8 0
-368 11 0
-368 8 0
369 -368 -767 0
-369 368 0
-369 767 0
370 -851 -367 0
-370 851 0
-370 367 0
371 -35 -13 0
-371 35 0
-371 13 0
372 -371 -9 0
-372 371 0
-372 9 0
373 -852 -370 0
-373 852 0
-373 370 0
374 -44 -13 0
-374 44 0
-374 13 0
375 -374 -48 0
-375 374 0
-375 48 0
376 -853 -373 0
-376 853 0
-376 373 0
377 -29 -716 0
-377 29 0
-377 716 0
378 -377 -721 0
-378 377 0
-378 721 0
379 -854 -376 0
-379 854 0
-379 376 0
380 -242 -713 0
-380 242 0
-380 713 0
381 -855 -379 0
-381 855 0
-381 379 0
382 -726 -698 0
-382 726 0
-382 698 0
383 -382 -856 0
-383 382 0
-383 856 0
384 -857 -381 0
-384 857 0
-384 381 0
385 -34 -2 0
-385 34 0
-385 2 0
386 -385 -750 0
-386 385 0
-386 750 0
387 -858 -384 0
-387 858 0
-387 384 0
388 -9 -6 0
-388 9 0
-388 6 0
389 -388 -40 0
-389 388 0
-389 40 0
390 -859 -387 0
-390 859 0
-390 387 0
391 -860 -10 0
-391 860 0
-391 10 0
392 -391 -42 0
-392 391 0
-392 42 0
393 -861 -390 0
-393 861 0
-393 390 0
394 -37 -26 0
-394 37 0
-394 26 0
395 -394 -43 0
-395 394 0
-395 43 0
396 -862 -393 0
-396 862 0
-396 393 0
397 -25 -4 0
-397 25 0
-397 4 0
398 -397 -748 0
-398 397 0
-398 748 0
399 -863 -396 0
-399 863 0
-399 396 0
400 -23 -15 0
-400 23 0
-400 15 0
401 -400 -12 0
-401 400 0
-401 12 0
402 -864 -399 0
-402 864 0
-402 399 0
403 -49 -757 0
-403 49 0
-403 757 0
404 -403 -734 0
-404 403 0
-404 734 0
405 -865 -402 0
-405 865 0
-405 402 0
406 -801 -15 0
-406 801 0
-406 15 0
407 -406 -750 0
-407 406 0
-407 750 0
408 -866 -405 0
-408 866 0
-408 405 0
409 -794 -703 0
-409 794 0
-409 703 0
410 -409 -25 0
-410 409 0
-410 25 0
411 -867 -408 0
-411 867 0
-411 408 0
412 -46 -736 0
-412 46 0
-412 736 0
413 -412 -30 0
-413 412 0
-413 30 0
414 -868 -411 0
-414 868 0
-414 411 0
415 -50 -1 0
-415 50 0
-415 1 0
416 -415 -777 0
-416 415 0
-416 777 0
417 -869 -414 0
-417 869 0
-417 414 0
418 -731 -32 0
-418 731 0
-418 32 0
419 -418 -845 0
-419 418 0
-419 845 0
420 -870 -417 0
-420 870 0
-420 417 0
421 -829 -697 0
-421 829 0
-421 697 0
422 -421 -856 0
-422 421 0
-422 856 0
423 -871 -420 0
-423 871 0
-423 420 0
424 -740 -713 0
-424 740 0
-424 713 0
425 -424 -777 0
-425 424 0
-425 777 0
426 -872 -423 0
-426 872 0
-426 423 0
427 -50 -24 0
-427 50 0
-427 24 0
428 -427 -750 0
-428 427 0
-428 750 0
429 -873 -426 0
-429 873 0
-429 426 0
430 -726 -23 0
-430 726 0
-430 23 0
431 -430 -716 0
-431 430 0
-431 716 0
432 -874 -429 0
-432 874 0
-432 429 0
433 -759 -32 0
-433 759 0
-433 32 0
434 -433 -49 0
-434 433 0
-434 49 0
435 -875 -432 0
-435 875 0
-435 432 0
436 -801 -31 0
-436 801 0
-436 31 0
437 -436 -12 0
-437 436 0
-437 12 0
438 -876 -435 0
-438 876 0
-438 435 0
439 -29 -740 0
-439 29 0
-439 740 0
440 -439 -767 0
-440 439 0
-440 767 0
441 -877 -438 0
-441 877 0
-441 438 0
442 -726 -711 0
-442 726 0
-442 711 0
443 -442 -15 0
-443 442 0
-443 15 0
444 -878 -441 0
-444 878 0
-444 441 0
445 -726 -12 0
-445 726 0
-445 12 0
446 -445 -36 0
-446 445 0
-446 36 0
447 -879 -444 0
-447 879 0
-447 444 0
448 -34 -757 0
-448 34 0
-448 757 0
449 -448 -714 0
-449 448 0
-449 714 0
450 -880 -447 0
-450 880 0
-450 447 0
451 -33 -698 0
-451 33 0
-451 698 0
452 -451 -6 0
-452 451 0
-452 6 0
453 -881 -450 0
-453 881 0
-453 450 0
454 -763 -4 0
-454 763 0
-454 4 0
455 -454 -48 0
-455 454 0
-455 48 0
456 -882 -453 0
-456 882 0
-456 453 0
457 -790 -781 0
-457 790 0
-457 781 0
458 -457 -709 0
-458 457 0
-458 709 0
459 -883 -456 0
-459 883 0
-459 456 0
460 -794 -37 0
-460 794 0
-460 37 0
461 -460 -727 0
-461 460 0
-461 727 0
462 -884 -459 0
-462 884 0
-462 459 0
463 -723 -808 0
-463 723 0
-463 808 0
464 -463 -856 0
-464 463 0
-464 856 0
465 -885 -462 0
-465 885 0
-465 462 0
466 -29 -1 0
-466 29 0
-466 1 0
467 -466 -856 0
-467 466 0
-467 856 0
468 -886 -465 0
-468 886 0
-468 465 0
469 -794 -6 0
-469 794 0
-469 6 0
470 -469 -40 0
-470 469 0
-470 40 0
471 -887 -468 0
-471 887 0
-471 468 0
472 -33 -19 0
-472 33 0
-472 19 0
473 -472 -39 0
-473 472 0
-473 39 0
474 -888 -471 0
-474 888 0
-474 471 0
475 -794 -7 0
-475 794 0
-475 7 0
476 -475 -6 0
-476 475 0
-476 6 0
477 -889 -474 0
-477 889 0
-477 474 0
478 -51 -6 0
-478 51 0
-478 6 0
479 -890 -477 0
-479 890 0
-479 477 0
480 -736 -808 0
-480 736 0
-480 808 0
481 -480 -748 0
-481 480 0
-481 748 0
482 -891 -479 0
-482 891 0
-482 479 0
483 -23 -711 0
-483 23 0
-483 711 0
484 -483 -48 0
-484 483 0
-484 48 0
485 -892 -482 0
-485 892 0
-485 482 0
486 -736 -23 0
-486 736 0
-486 23 0
487 -486 -40 0
-487 486 0
-487 40 0
488 -893 -485 0
-488 893 0
-488 485 0
489 -40 -39 0
-489 40 0
-489 39 0
490 -489 -827 0
-490 489 0
-490 827 0
491 -894 -488 0
-491 894 0
-491 488 0
492 -39 -33 0
-492 39 0
-492 33 0
493 -492 -3 0
-493 492 0
-493 3 0
494 -895 -491 0
-494 895 0
-494 491 0
495 -740 -23 0
-495 740 0
-495 23 0
496 -495 -801 0
-496 495 0
-496 801 0
497 -896 -494 0
-497 896 0
-497 494 0
498 -50 -860 0
-498 50 0
-498 860 0
499 -498 -41 0
-499 498 0
-499 41 0
500 -897 -497 0
-500 897 0
-500 497 0
501 -698 -696 0
-501 698 0
-501 696 0
502 -501 -709 0
-502 501 0
-502 709 0
503 -898 -500 0
-503 898 0
-503 500 0
504 -37 -13 0
-504 37 0
-504 13 0
505 -504 -711 0
-505 504 0
-505 711 0
506 -899 -503 0
-506 899 0
-506 503 0
507 -781 -25 0
-507 781 0
-507 25 0
508 -507 -721 0
-508 507 0
-508 721 0
509 -900 -506 0
-509 900 0
-509 506 0
510 -757 -4 0
-510 757 0
-510 4 0
511 -510 -15 0
-511 510 0
-511 15 0
512 -901 -509 0
-512 901 0
-512 509 0
513 -24 -753 0
-513 24 0
-513 753 0
514 -513 -743 0
-514 513 0
-514 743 0
515 -902 -512 0
-515 902 0
-515 512 0
516 -29 -721 0
-516 29 0
-516 721 0
517 -516 -22 0
-517 516 0
-517 22 0
518 -903 -515 0
-518 903 0
-518 515 0
519 -808 -702 0
-519 808 0
-519 702 0
520 -519 -709 0
-520 519 0
-520 709 0
521 -904 -518 0
-521 904 0
-521 518 0
522 -777 -46 0
-522 777 0
-522 46 0
523 -522 -746 0
-523 522 0
-523 746 0
524 -905 -521 0
-524 905 0
-524 521 0
525 -15 -748 0
-525 15 0
-525 748 0
526 -525 -47 0
-526 525 0
-526 47 0
527 -906 -524 0
-527 906 0
-527 524 0
528 -28 -8 0
-528 28 0
-528 8 0
529 -528 -856 0
-529 528 0
-529 856 0
530 -907 -527 0
-530 907 0
-530 527 0
531 -48 -702 0
-531 48 0
-531 702 0
532 -531 -20 0
-532 531 0
-532 20 0
533 -908 -530 0
-533 908 0
-533 530 0
534 -49 -759 0
-534 49 0
-534 759 0
535 -534 -33 0
-535 534 0
-535 33 0
536 -909 -533 0
-536 909 0
-536 533 0
537 -27 -10 0
-537 27 0
-537 10 0
538 -537 -856 0
-538 537 0
-538 856 0
539 -910 -536 0
-539 910 0
-539 536 0
540 -23 -1 0
-540 23 0
-540 1 0
541 -540 -801 0
-541 540 0
-541 801 0
542 -911 -539 0
-542 911 0
-542 539 0
543 -23 -845 0
-543 23 0
-543 845 0
544 -543 -734 0
-544 543 0
-544 734 0
545 -912 -542 0
-545 912 0
-545 542 0
546 -306 -734 0
-546 306 0
-546 734 0
547 -913 -545 0
-547 913 0
-547 545 0
548 -736 -860 0
-548 736 0
-548 860 0
549 -548 -790 0
-549 548 0
-549 790 0
550 -914 -547 0
-550 914 0
-550 547 0
551 -45 -702 0
-551 45 0
-551 702 0
552 -551 -717 0
-552 551 0
-552 717 0
553 -915 -550 0
-553 915 0
-553 550 0
554 -716 -3 0
-554 716 0
-554 3 0
555 -554 -714 0
-555 554 0
-555 714 0
556 -916 -553 0
-556 916 0
-556 553 0
557 -24 -713 0
-557 24 0
-557 713 0
558 -557 -812 0
-558 557 0
-558 812 0
559 -917 -556 0
-559 917 0
-559 556 0
560 -33 -757 0
-560 33 0
-560 757 0
561 -560 -9 0
-561 560 0
-561 9 0
562 -918 -559 0
-562 918 0
-562 559 0
563 -50 -813 0
-563 50 0
-563 813 0
564 -563 -767 0
-564 563 0
-564 767 0
565 -919 -562 0
-565 919 0
-565 562 0
566 -12 -835 0
-566 12 0
-566 835 0
567 -566 -3 0
-567 566 0
-567 3 0
568 -920 -565 0
-568 920 0
-568 565 0
569 -740 -5 0
-569 740 0
-569 5 0
570 -569 -9 0
-570 569 0
-570 9 0
571 -921 -568 0
-571 921 0
-571 568 0
572 -719 -707 0
-572 719 0
-572 707 0
573 -572 -8 0
-573 572 0
-573 8 0
574 -922 -571 0
-574 922 0
-574 571 0
575 -777 -26 0
-575 777 0
-575 26 0
576 -575 -9 0
-576 575 0
-576 9 0
577 -923 -574 0
-577 923 0
-577 574 0
578 -47 -2 0
-578 47 0
-578 2 0
579 -578 -709 0
-579 578 0
-579 709 0
580 -924 -577 0
-580 924 0
-580 577 0
581 -29 -23 0
-581 29 0
-581 23 0
582 -581 -41 0
-582 581 0
-582 41 0
583 -925 -580 0
-583 925 0
-583 580 0
584 -29 -699 0
-584 29 0
-584 699 0
585 -584 -738 0
-585 584 0
-585 738 0
586 -926 -583 0
-586 926 0
-586 583 0
587 -781 -757 0
-587 781 0
-587 757 0
588 -587 -709 0
-588 587 0
-588 709 0
589 -927 -586 0
-589 927 0
-589 586 0
590 -27 -813 0
-590 27 0
-590 813 0
591 -590 -16 0
-591 590 0
-591 16 0
592 -928 -589 0
-592 928 0
-592 589 0
593 -44 -10 0
-593 44 0
-593 10 0
594 -593 -20 0
-594 593 0
-594 20 0
595 -929 -592 0
-595 929 0
-595 592 0
596 -46 -757 0
-596 46 0
-596 757 0
597 -596 -48 0
-597 596 0
-597 48 0
598 -930 -595 0
-598 930 0
-598 595 0
599 -777 -32 0
-599 777 0
-599 32 0
600 -599 -19 0
-600 599 0
-600 19 0
601 -931 -598 0
-601 931 0
-601 598 0
602 -794 -4 0
-602 794 0
-602 4 0
603 -602 -18 0
-603 602 0
-603 18 0
604 -932 -601 0
-604 932 0
-604 601 0
605 -50 -808 0
-605 50 0
-605 808 0
606 -605 -6 0
-606 605 0
-606 6 0
607 -933 -604 0
-607 933 0
-607 604 0
608 -736 -716 0
-608 736 0
-608 716 0
609 -608 -36 0
-609 608 0
-609 36 0
610 -934 -607 0
-610 934 0
-610 607 0
611 -19 -699 0
-611 19 0
-611 699 0
612 -611 -3 0
-612 611 0
-612 3 0
613 -935 -610 0
-613 935 0
-613 610 0
614 -726 -1 0
-614 726 0
-614 1 0
615 -614 -860 0
-615 614 0
-615 860 0
616 -936 -613 0
-616 936 0
-616 613 0
617 -759 -705 0
-617 759 0
-617 705 0
618 -617 -43 0
-618 617 0
-618 43 0
619 -937 -616 0
-619 937 0
-619 616 0
620 -46 -789 0
-620 46 0
-620 789 0
621 -620 -819 0
-621 620 0
-621 819 0
622 -938 -619 0
-622 938 0
-622 619 0
623 -49 -740 0
-623 49 0
-623 740 0
624 -623 -767 0
-624 623 0
-624 767 0
625 -939 -622 0
-625 939 0
-625 622 0
626 -763 -699 0
-626 763 0
-626 699 0
627 -626 -9 0
-627 626 0
-627 9 0
628 -940 -625 0
-628 940 0
-628 625 0
629 -46 -703 0
-629 46 0
-629 703 0
630 -629 -26 0
-630 629 0
-630 26 0
631 -941 -628 0
-631 941 0
-631 628 0
632 -763 -5 0
-632 763 0
-632 5 0
633 -632 -717 0
-633 632 0
-633 717 0
634 -942 -631 0
-634 942 0
-634 631 0
635 -35 -740 0
-635 35 0
-635 740 0
636 -635 -714 0
-636 635 0
-636 714 0
637 -943 -634 0
-637 943 0
-637 634 0
638 -801 -34 0
-638 801 0
-638 34 0
639 -638 -819 0
-639 638 0
-639 819 0
640 -944 -637 0
-640 944 0
-640 637 0
641 -829 -23 0
-641 829 0
-641 23 0
642 -641 -29 0
-642 641 0
-642 29 0
643 -945 -640 0
-643 945 0
-643 640 0
644 -736 -35 0
-644 736 0
-644 35 0
645 -644 -3 0
-645 644 0
-645 3 0
646 -946 -643 0
-646 946 0
-646 643 0
647 -740 -808 0
-647 740 0
-647 808 0
648 -647 -40 0
-648 647 0
-648 40 0
649 -947 -646 0
-649 947 0
-649 646 0
650 -647 -44 0
-650 647 0
-650 44 0
651 -948 -649 0
-651 948 0
-651 649 0
652 -34 -696 0
-652 34 0
-652 696 0
653 -652 -717 0
-653 652 0
-653 717 0
654 -949 -651 0
-654 949 0
-654 651 0
655 -750 -699 0
-655 750 0
-655 699 0
656 -655 -30 0
-656 655 0
-656 30 0
657 -950 -654 0
-657 950 0
-657 654 0
658 -727 -705 0
-658 727 0
-658 705 0
659 -658 -9 0
-659 658 0
-659 9 0
660 -951 -657 0
-660 951 0
-660 657 0
661 -759 -22 0
-661 759 0
-661 22 0
662 -661 -819 0
-662 661 0
-662 819 0
663 -952 -660 0
-663 952 0
-663 660 0
664 -47 -743 0
-664 47 0
-664 743 0
665 -664 -819 0
-665 664 0
-665 819 0
666 -953 -663 0
-666 953 0
-666 663 0
667 -740 -17 0
-667 740 0
-667 17 0
668 -667 -21 0
-668 667 0
-668 21 0
669 -954 -666 0
-669 954 0
-669 666 0
670 -757 -14 0
-670 757 0
-670 14 0
671 -670 -35 0
-671 670 0
-671 35 0
672 -955 -669 0
-672 955 0
-672 669 0
673 -731 -713 0
-673 731 0
-673 713 0
674 -673 -43 0
-674 673 0
-674 43 0
675 -956 -672 0
-675 956 0
-675 672 0
676 -28 -2 0
-676 28 0
-676 2 0
677 -676 -21 0
-677 676 0
-677 21 0
678 -957 -675 0
-678 957 0
-678 675 0
679 -10 -1 0
-679 10 0
-679 1 0
680 -679 -819 0
-680 679 0
-680 819 0
681 -958 -678 0
-681 958 0
-681 678 0
682 -29 -26 0
-682 29 0
-682 26 0
683 -682 -41 0
-683 682 0
-683 41 0
684 -959 -681 0
-684 959 0
-684 681 0
685 -777 -845 0
-685 777 0
-685 845 0
686 -685 -827 0
-686 685 0
-686 827 0
687 -960 -684 0
-687 960 0
-687 684 0
688 -46 -29 0
-688 46 0
-688 29 0
689 -688 -743 0
-689 688 0
-689 743 0
690 -961 -687 0
-690 961 0
-690 687 0
691 -790 -24 0
-691 790 0
-691 24 0
692 -691 -42 0
-692 691 0
-692 42 0
693 -962 -690 0
-693 962 0
-693 690 0
694 -212 -827 0
-694 212 0
-694 827 0
695 -963 -693 0
-695 963 0
-695 693 0
-696 -1 0
696 1 0
-697 -3 0
697 3 0
-698 -5 0
698 5 0
-699 -4 0
699 4 0
-700 -54 0
700 54 0
-701 -52 0
701 52 0
-702 -8 0
702 8 0
-703 -7 0
703 7 0
-704 -57 0
704 57 0
-705 -10 0
705 10 0
-706 -60 0
706 60 0
-707 -13 0
707 13 0
-708 -63 0
708 63 0
-709 -16 0
709 16 0
-710 -66 0
710 66 0
-711 -17 0
711 17 0
-712 -69 0
712 69 0
-713 -18 0
713 18 0
-714 -20 0
714 20 0
-715 -72 0
715 72 0
-716 -21 0
716 21 0
-717 -22 0
717 22 0
-718 -75 0
718 75 0
-719 -23 0
719 23 0
-720 -78 0
720 78 0
-721 -27 0
721 27 0
-722 -81 0
722 81 0
-723 -29 0
723 29 0
-724 -84 0
724 84 0
-725 -87 0
725 87 0
-726 -31 0
726 31 0
-727 -14 0
727 14 0
-728 -90 0
728 90 0
-729 -93 0
729 93 0
-730 -96 0
730 96 0
-731 -34 0
731 34 0
-732 -99 0
732 99 0
-733 -102 0
733 102 0
-734 -30 0
734 30 0
-735 -105 0
735 105 0
-736 -38 0
736 38 0
-737 -108 0
737 108 0
-738 -6 0
738 6 0
-739 -111 0
739 111 0
-740 -25 0
740 25 0
-741 -114 0
741 114 0
-742 -117 0
742 117 0
-743 -40 0
743 40 0
-744 -120 0
744 120 0
-745 -123 0
745 123 0
-746 -44 0
746 44 0
-747 -126 0
747 126 0
-748 -9 0
748 9 0
-749 -129 0
749 129 0
-750 -39 0
750 39 0
-751 -132 0
751 132 0
-752 -135 0
752 135 0
-753 -12 0
753 12 0
-754 -138 0
754 138 0
-755 -141 0
755 141 0
-756 -144 0
756 144 0
-757 -28 0
757 28 0
-758 -147 0
758 147 0
-759 -46 0
759 46 0
-760 -150 0
760 150 0
-761 -153 0
761 153 0
-762 -156 0
762 156 0
-763 -41 0
763 41 0
-764 -159 0
764 159 0
-765 -162 0
765 162 0
-766 -165 0
766 165 0
-767 -43 0
767 43 0
-768 -168 0
768 168 0
-769 -171 0
769 171 0
-770 -174 0
770 174 0
-771 -177 0
771 177 0
-772 -180 0
772 180 0
-773 -24 0
773 24 0
-774 -183 0
774 183 0
-775 -186 0
775 186 0
-776 -189 0
776 189 0
-777 -49 0
777 49 0
-778 -192 0
778 192 0
-779 -195 0
779 195 0
-780 -198 0
780 198 0
-781 -33 0
781 33 0
-782 -201 0
782 201 0
-783 -204 0
783 204 0
-784 -207 0
784 207 0
-785 -210 0
785 210 0
-786 -213 0
786 213 0
-787 -216 0
787 216 0
-788 -219 0
788 219 0
-789 -32 0
789 32 0
-790 -36 0
790 36 0
-791 -222 0
791 222 0
-792 -225 0
792 225 0
-793 -228 0
793 228 0
-794 -45 0
794 45 0
-795 -231 0
795 231 0
-796 -234 0
796 234 0
-797 -237 0
797 237 0
-798 -240 0
798 240 0
-799 -243 0
799 243 0
-800 -246 0
800 246 0
-801 -50 0
801 50 0
-802 -249 0
802 249 0
-803 -251 0
803 251 0
-804 -254 0
804 254 0
-805 -257 0
805 257 0
-806 -260 0
806 260 0
-807 -263 0
807 263 0
-808 -19 0
808 19 0
-809 -266 0
809 266 0
-810 -269 0
810 269 0
-811 -272 0
811 272 0
-812 -35 0
812 35 0
-813 -15 0
813 15 0
-814 -275 0
814 275 0
-815 -278 0
815 278 0
-816 -281 0
816 281 0
-817 -284 0
817 284 0
-818 -287 0
818 287 0
-819 -48 0
819 48 0
-820 -290 0
820 290 0
-821 -292 0
821 292 0
-822 -295 0
822 295 0
-823 -298 0
823 298 0
-824 -301 0
824 301 0
-825 -304 0
825 304 0
-826 -307 0
826 307 0
-827 -42 0
827 42 0
-828 -310 0
828 310 0
-829 -37 0
829 37 0
-830 -313 0
830 313 0
-831 -316 0
831 316 0
-832 -319 0
832 319 0
-833 -322 0
833 322 0
-834 -325 0
834 325 0
-835 -11 0
835 11 0
-836 -328 0
836 328 0
-837 -331 0
837 331 0
-838 -334 0
838 334 0
-839 -337 0
839 337 0
-840 -340 0
840 340 0
-841 -343 0
841 343 0
-842 -346 0
842 346 0
-843 -349 0
843 349 0
-844 -352 0
844 352 0
-845 -2 0
845 2 0
-846 -355 0
846 355 0
-847 -357 0
847 357 0
-848 -360 0
848 360 0
-849 -363 0
849 363 0
-850 -366 0
850 366 0
-851 -369 0
851 369 0
-852 -372 0
852 372 0
-853 -375 0
853 375 0
-854 -378 0
854 378 0
-855 -380 0
855 380 0
-856 -47 0
856 47 0
-857 -383 0
857 383 0
-858 -386 0
858 386 0
-859 -389 0
859 389 0
-860 -26 0
860 26 0
-861 -392 0
861 392 0
-862 -395 0
862 395 0
-863 -398 0
863 398 0
-864 -401 0
864 401 0
-865 -404 0
865 404 0
-866 -407 0
866 407 0
-867 -410 0
867 410 0
-868 -413 0
868 413 0
-869 -416 0
869 416 0
-870 -419 0
870 419 0
-871 -422 0
871 422 0
-872 -425 0
872 425 0
-873 -428 0
873 428 0
-874 -431 0
874 431 0
-875 -434 0
875 434 0
-876 -437 0
876 437 0
-877 -440 0
877 440 0
-878 -443 0
878 443 0
-879 -446 0
879 446 0
-880 -449 0
880 449 0
-881 -452 0
881 452 0
-882 -455 0
882 455 0
-883 -458 0
883 458 0
-884 -461 0
884 461 0
-885 -464 0
885 464 0
-886 -467 0
886 467 0
-887 -470 0
887 470 0
-888 -473 0
888 473 0
-889 -476 0
889 476 0
-890 -478 0
890 478 0
-891 -481 0
891 481 0
-892 -484 0
892 484 0
-893 -487 0
893 487 0
-894 -490 0
894 490 0
-895 -493 0
895 493 0
-896 -496 0
896 496 0
-897 -499 0
897 499 0
-898 -502 0
898 502 0
-899 -505 0
899 505 0
-900 -508 0
900 508 0
-901 -511 0
901 511 0
-902 -514 0
902 514 0
-903 -517 0
903 517 0
-904 -520 0
904 520 0
-905 -523 0
905 523 0
-906 -526 0
906 526 0
-907 -529 0
907 529 0
-908 -532 0
908 532 0
-909 -535 0
909 535 0
-910 -538 0
910 538 0
-911 -541 0
911 541 0
-912 -544 0
912 544 0
-913 -546 0
913 546 0
-914 -549 0
914 549 0
-915 -552 0
915 552 0
-916 -555 0
916 555 0
-917 -558 0
917 558 0
-918 -561 0
918 561 0
-919 -564 0
919 564 0
-920 -567 0
920 567 0
-921 -570 0
921 570 0
-922 -573 0
922 573 0
-923 -576 0
923 576 0
-924 -579 0
924 579 0
-925 -582 0
925 582 0
-926 -585 0
926 585 0
-927 -588 0
927 588 0
-928 -591 0
928 591 0
-929 -594 0
929 594 0
-930 -597 0
930 597 0
-931 -600 0
931 600 0
-932 -603 0
932 603 0
-933 -606 0
933 606 0
-934 -609 0
934 609 0
-935 -612 0
935 612 0
-936 -615 0
936 615 0
-937 -618 0
937 618 0
-938 -621 0
938 621 0
-939 -624 0
939 624 0
-940 -627 0
940 627 0
-941 -630 0
941 630 0
-942 -633 0
942 633 0
-943 -636 0
943 636 0
-944 -639 0
944 639 0
-945 -642 0
945 642 0
-946 -645 0
946 645 0
-947 -648 0
947 648 0
-948 -650 0
948 650 0
-949 -653 0
949 653 0
-950 -656 0
950 656 0
-951 -659 0
951 659 0
-952 -662 0
952 662 0
-953 -665 0
953 665 0
-954 -668 0
954 668 0
-955 -671 0
955 671 0
-956 -674 0
956 674 0
-957 -677 0
957 677 0
-958 -680 0
958 680 0
-959 -683 0
959 683 0
-960 -686 0
960 686 0
-961 -689 0
961 689 0
-962 -692 0
962 692 0
-963 -694 0
963 694 0
695 0
